qbf_easy_train/easy_1076_SAT.qdimacs
p cnf 25 68
a 18 2 13 0
e 1 3 4 5 6 7 8 9 10 11 12 14 15 16 17 19 20 21 22 23 24 25 0
3 2 0
3 -1 0
-2 1 -3 0
-1 3 -4 0
1 -3 -4 0
-1 -3 4 0
1 3 4 0
-6 1 0
-6 -5 0
-1 5 6 0
4 6 -7 0
-4 -6 -7 0
4 -6 7 0
-4 6 7 0
-5 -9 -10 0
5 9 -10 0
-5 9 10 0
5 -9 10 0
11 2 0
11 10 0
-2 -10 -11 0
12 -8 0
12 11 0
8 -11 -12 0
12 -13 -14 0
-12 13 -14 0
12 13 14 0
-12 -13 14 0
7 -14 -15 0
-7 14 -15 0
7 14 15 0
-7 -14 15 0
1 9 -16 0
-1 -9 -16 0
1 -9 16 0
-1 9 16 0
18 -16 0
18 -17 0
16 17 -18 0
16 19 -20 0
-16 -19 -20 0
16 -19 20 0
-16 19 20 0
21 -18 0
21 20 0
18 -20 -21 0
-15 -21 -22 0
15 21 -22 0
-15 21 22 0
15 -21 22 0
-9 -1 -23 0
9 1 -23 0
-9 1 23 0
9 -1 23 0
24 3 0
24 -23 0
-3 23 -24 0
22 -24 -25 0
-22 24 -25 0
22 24 25 0
-22 -24 25 0
16 -7 9 22 0
16 18 8 5 24 0
14 5 24 11 -19 2 0
-13 19 -3 -18 -7 -21 -24 0
19 -20 4 23 -24 -11 0
13 -1 21 11 -12 -22 14 23 0
25 0
