sat_easy_train/easy_1076_SAT.dimacs
p cnf 113 371
-3 1 0
-3 2 0
-1 -2 3 0
6 -4 0
6 -5 0
4 5 -6 0
-7 3 0
-7 6 0
-3 -6 7 0
-8 9 -10 0
8 -9 -10 0
-8 -9 10 0
8 9 10 0
-14 12 0
-14 -13 0
-12 13 14 0
11 -14 -15 0
-11 14 -15 0
11 14 15 0
-11 -14 15 0
-16 -2 0
-16 -4 0
2 4 16 0
-15 -16 -17 0
15 16 -17 0
-15 16 17 0
15 -16 17 0
10 -17 -18 0
-10 17 -18 0
10 17 18 0
-10 -17 18 0
-4 -18 -19 0
4 18 -19 0
-4 18 19 0
4 -18 19 0
20 19 0
20 1 0
-19 -1 -20 0
21 7 0
21 20 0
-7 -20 -21 0
2 3 -22 0
-2 -3 -22 0
2 -3 22 0
-2 3 22 0
-25 -23 0
-25 -24 0
23 24 25 0
26 -22 0
26 -25 0
22 25 -26 0
-21 -26 -27 0
21 26 -27 0
-21 26 27 0
21 -26 27 0
29 -28 0
29 -10 0
28 10 -29 0
-30 -22 0
-30 -29 0
22 29 30 0
31 -9 0
31 -30 0
9 30 -31 0
-32 -24 0
-32 10 0
24 -10 32 0
-33 12 0
-33 -1 0
-12 1 33 0
-32 33 -34 0
32 -33 -34 0
-32 -33 34 0
32 33 34 0
35 -31 0
35 -34 0
31 34 -35 0
11 5 -36 0
-11 -5 -36 0
11 -5 36 0
-11 5 36 0
37 10 0
37 -25 0
-10 25 -37 0
-39 38 0
-39 -13 0
-38 13 39 0
-37 -39 -40 0
37 39 -40 0
-37 39 40 0
37 -39 40 0
-41 -36 0
-41 40 0
36 -40 41 0
-42 38 0
-42 10 0
-38 -10 42 0
-43 16 0
-43 17 0
-16 -17 43 0
-44 43 0
-44 19 0
-43 -19 44 0
22 8 -45 0
-22 -8 -45 0
22 -8 45 0
-22 8 45 0
46 45 0
46 9 0
-45 -9 -46 0
-47 -44 0
-47 -46 0
44 46 47 0
-13 -4 -48 0
13 4 -48 0
-13 4 48 0
13 -4 48 0
49 -12 0
49 -48 0
12 48 -49 0
50 33 0
50 49 0
-33 -49 -50 0
47 50 -51 0
-47 -50 -51 0
47 -50 51 0
-47 50 51 0
-52 4 0
-52 -13 0
-4 13 52 0
-53 -52 0
-53 49 0
52 -49 53 0
54 -51 0
54 53 0
51 -53 -54 0
55 42 0
55 54 0
-42 -54 -55 0
-56 41 0
-56 -55 0
-41 55 56 0
49 57 -58 0
-49 -57 -58 0
49 -57 58 0
-49 57 58 0
59 33 0
59 -58 0
-33 58 -59 0
-60 28 0
-60 4 0
-28 -4 60 0
-23 60 -61 0
23 -60 -61 0
-23 -60 61 0
23 60 61 0
62 -59 0
62 61 0
59 -61 -62 0
63 15 0
63 52 0
-15 -52 -63 0
-64 10 0
-64 -63 0
-10 63 64 0
-65 -62 0
-65 -64 0
62 64 65 0
56 65 -66 0
-56 -65 -66 0
56 -65 66 0
-56 65 66 0
-67 35 0
-67 66 0
-35 -66 67 0
-27 -67 -68 0
27 67 -68 0
-27 67 68 0
27 -67 68 0
-69 -28 0
-69 -17 0
28 17 69 0
-70 -52 0
-70 24 0
52 -24 70 0
-12 -70 -71 0
12 70 -71 0
-12 70 71 0
12 -70 71 0
-71 38 -72 0
71 -38 -72 0
-71 -38 72 0
71 38 72 0
-72 73 -74 0
72 -73 -74 0
-72 -73 74 0
72 73 74 0
5 -75 0
-5 -75 0
-76 -57 0
-76 -75 0
57 75 76 0
77 74 0
77 76 0
-74 -76 -77 0
15 60 -78 0
-15 -60 -78 0
15 -60 78 0
-15 60 78 0
-77 -78 -79 0
77 78 -79 0
-77 78 79 0
77 -78 79 0
-80 -29 0
-80 -33 0
29 33 80 0
60 -63 -81 0
-60 63 -81 0
60 63 81 0
-60 -63 81 0
82 -13 0
82 1 0
13 -1 -82 0
-83 -6 0
-83 82 0
6 -82 83 0
32 -83 -84 0
-32 83 -84 0
32 83 84 0
-32 -83 84 0
85 84 0
85 71 0
-84 -71 -85 0
86 81 0
86 85 0
-81 -85 -86 0
87 -80 0
87 -86 0
80 86 -87 0
-88 79 0
-88 87 0
-79 -87 88 0
89 2 0
89 9 0
-2 -9 -89 0
-9 89 -90 0
9 -89 -90 0
-9 -89 90 0
9 89 90 0
91 29 0
91 -70 0
-29 70 -91 0
-92 52 0
-92 -75 0
-52 75 92 0
93 91 0
93 92 0
-91 -92 -93 0
-30 14 -94 0
30 -14 -94 0
-30 -14 94 0
30 14 94 0
-95 94 0
-95 -1 0
-94 1 95 0
-96 -23 0
-96 -95 0
23 95 96 0
-96 -52 -97 0
96 52 -97 0
-96 52 97 0
96 -52 97 0
98 -93 0
98 97 0
93 -97 -98 0
-90 -98 -99 0
90 98 -99 0
-90 98 99 0
90 -98 99 0
100 75 0
100 57 0
-75 -57 -100 0
-101 32 -102 0
101 -32 -102 0
-101 -32 102 0
101 32 102 0
70 29 -103 0
-70 -29 -103 0
70 -29 103 0
-70 29 103 0
104 -82 0
104 -6 0
82 6 -104 0
105 103 0
105 104 0
-103 -104 -105 0
-106 102 0
-106 -105 0
-102 105 106 0
-107 -45 0
-107 -58 0
45 58 107 0
106 107 -108 0
-106 -107 -108 0
106 -107 108 0
-106 107 108 0
109 -100 0
109 -108 0
100 108 -109 0
110 99 0
110 109 0
-99 -109 -110 0
-111 88 0
-111 -110 0
-88 110 111 0
112 -69 0
112 -111 0
69 111 -112 0
68 -112 -113 0
-68 112 -113 0
68 112 113 0
-68 -112 113 0
-15 16 -60 -63 -69 -76 0
59 -64 -92 0
-69 -50 15 49 0
11 63 0
69 92 8 101 -42 -32 0
-47 63 -12 55 -88 -80 0
19 -33 -107 -92 -16 0
73 14 88 0
-20 -15 0
95 78 0
19 -94 20 56 60 0
-10 86 -79 57 0
-98 84 -53 19 70 0
90 16 25 -96 20 38 0
-8 69 -21 -84 -35 -32 0
-55 113 9 23 86 0
-36 -16 34 0
32 26 0
-19 61 105 0
29 101 64 0
37 -33 66 0
-52 6 0
-81 -2 -87 0
60 101 110 -93 -18 0
-64 49 0
45 29 89 32 0
54 111 23 88 110 -113 0
-74 4 55 0
-39 113 -44 34 2 0
28 89 48 -73 57 0
106 -85 -113 0
25 16 -9 0
-51 43 0
63 28 -77 23 0
104 -81 7 0
-67 59 100 64 105 0
98 92 -61 0
-28 -74 -25 83 0
98 13 110 34 99 62 0
-34 -93 -104 -43 1 77 0
-48 -102 57 74 -20 0
98 45 -78 0
-21 53 -24 107 0
-84 19 -90 105 0
55 80 100 -10 0
82 100 61 4 -55 8 0
11 -40 -36 -44 0
69 94 0
113 0
